benchmarks/ising_models/2DLattices/SqrLattices/J_unif_-1,1/3x3_square_lattice_unif_frust.wcnf
p wcnf 21 48
w -2 0.419171 0
w 2 2.385661 0
w -3 1.264505 0
w 3 0.790823 0
w -5 0.908576 0
w 5 1.100623 0
w -6 0.477850 0
w 6 2.092709 0
w -8 0.426221 0
w 8 2.346201 0
w -10 1.404446 0
w 10 0.712025 0
w -11 0.684605 0
w 11 1.460695 0
w -13 2.585170 0
w 13 0.386822 0
w -14 2.295025 0
w 14 0.435725 0
w -16 0.476995 0
w 16 2.096460 0
w -18 0.387128 0
w 18 2.583124 0
w -20 2.631909 0
w 20 0.379952 0
2 1 4 0
2 -1 -4 0
-2 1 -4 0
-2 -1 4 0
3 1 9 0
3 -1 -9 0
-3 1 -9 0
-3 -1 9 0
5 4 7 0
5 -4 -7 0
-5 4 -7 0
-5 -4 7 0
6 4 12 0
6 -4 -12 0
-6 4 -12 0
-6 -4 12 0
8 7 15 0
8 -7 -15 0
-8 7 -15 0
-8 -7 15 0
10 9 12 0
10 -9 -12 0
-10 9 -12 0
-10 -9 12 0
11 9 17 0
11 -9 -17 0
-11 9 -17 0
-11 -9 17 0
13 12 15 0
13 -12 -15 0
-13 12 -15 0
-13 -12 15 0
14 12 19 0
14 -12 -19 0
-14 12 -19 0
-14 -12 19 0
16 15 21 0
16 -15 -21 0
-16 15 -21 0
-16 -15 21 0
18 17 19 0
18 -17 -19 0
-18 17 -19 0
-18 -17 19 0
20 19 21 0
20 -19 -21 0
-20 19 -21 0
-20 -19 21 0
