benchmarks/ising_models/2DLattices/SqrLattices/J_unif_-1,1/3x3_square_lattice_unif_frust
ISING
9
2 2 2 2 2 2 2 2 2
0 12 1.0 1
2 0 1
2 0 3
2 1 2
2 1 4
2 2 5
2 3 4
2 3 6
2 4 5
2 4 7
2 5 8
2 6 7
2 7 8

4
 0.8694762210575009 -0.8694762210575009
 -0.8694762210575009 0.8694762210575009
4
 -0.23468051167065962 0.23468051167065962
 0.23468051167065962 -0.23468051167065962
4
 0.09587657853222153 -0.09587657853222153
 -0.09587657853222153 0.09587657853222153
4
 0.7384594036071994 -0.7384594036071994
 -0.7384594036071994 0.7384594036071994
4
 0.852797552033528 -0.852797552033528
 -0.852797552033528 0.852797552033528
4
 -0.33964286246175 0.33964286246175
 0.33964286246175 -0.33964286246175
4
 0.37891253034013106 -0.37891253034013106
 -0.37891253034013106 0.37891253034013106
4
 -0.9497911040181688 0.9497911040181688
 0.9497911040181688 -0.9497911040181688
4
 -0.8307438066506496 0.8307438066506496
 0.8307438066506496 -0.8307438066506496
4
 0.7402500117083506 -0.7402500117083506
 -0.7402500117083506 0.7402500117083506
4
 0.9489994170712648 -0.9489994170712648
 -0.9489994170712648 0.9489994170712648
4
 -0.9677093147323632 0.9677093147323632
 0.9677093147323632 -0.9677093147323632
